certificates/rado_a15_c18_N55.cnf
c Rad2 upper bound instance: x1 + 15*x2 - x3 = 18, interval [1,55]
p cnf 55 272
1 2 13 0
-1 -2 -13 0
1 3 28 0
-1 -3 -28 0
1 4 43 0
-1 -4 -43 0
2 14 0
-2 -14 0
2 3 29 0
-2 -3 -29 0
2 4 44 0
-2 -4 -44 0
2 3 15 0
-2 -3 -15 0
3 30 0
-3 -30 0
3 4 45 0
-3 -4 -45 0
1 4 0
-1 -4 0
2 4 16 0
-2 -4 -16 0
3 4 31 0
-3 -4 -31 0
4 46 0
-4 -46 0
1 2 5 0
-1 -2 -5 0
2 5 17 0
-2 -5 -17 0
3 5 32 0
-3 -5 -32 0
4 5 47 0
-4 -5 -47 0
1 3 6 0
-1 -3 -6 0
2 6 18 0
-2 -6 -18 0
3 6 33 0
-3 -6 -33 0
4 6 48 0
-4 -6 -48 0
1 4 7 0
-1 -4 -7 0
2 7 19 0
-2 -7 -19 0
3 7 34 0
-3 -7 -34 0
4 7 49 0
-4 -7 -49 0
1 5 8 0
-1 -5 -8 0
2 8 20 0
-2 -8 -20 0
3 8 35 0
-3 -8 -35 0
4 8 50 0
-4 -8 -50 0
1 6 9 0
-1 -6 -9 0
2 9 21 0
-2 -9 -21 0
3 9 36 0
-3 -9 -36 0
4 9 51 0
-4 -9 -51 0
1 7 10 0
-1 -7 -10 0
2 10 22 0
-2 -10 -22 0
3 10 37 0
-3 -10 -37 0
4 10 52 0
-4 -10 -52 0
1 8 11 0
-1 -8 -11 0
2 11 23 0
-2 -11 -23 0
3 11 38 0
-3 -11 -38 0
4 11 53 0
-4 -11 -53 0
1 9 12 0
-1 -9 -12 0
2 12 24 0
-2 -12 -24 0
3 12 39 0
-3 -12 -39 0
4 12 54 0
-4 -12 -54 0
1 10 13 0
-1 -10 -13 0
2 13 25 0
-2 -13 -25 0
3 13 40 0
-3 -13 -40 0
4 13 55 0
-4 -13 -55 0
1 11 14 0
-1 -11 -14 0
2 14 26 0
-2 -14 -26 0
3 14 41 0
-3 -14 -41 0
1 12 15 0
-1 -12 -15 0
2 15 27 0
-2 -15 -27 0
3 15 42 0
-3 -15 -42 0
1 13 16 0
-1 -13 -16 0
2 16 28 0
-2 -16 -28 0
3 16 43 0
-3 -16 -43 0
1 14 17 0
-1 -14 -17 0
2 17 29 0
-2 -17 -29 0
3 17 44 0
-3 -17 -44 0
1 15 18 0
-1 -15 -18 0
2 18 30 0
-2 -18 -30 0
3 18 45 0
-3 -18 -45 0
1 16 19 0
-1 -16 -19 0
2 19 31 0
-2 -19 -31 0
3 19 46 0
-3 -19 -46 0
1 17 20 0
-1 -17 -20 0
2 20 32 0
-2 -20 -32 0
3 20 47 0
-3 -20 -47 0
1 18 21 0
-1 -18 -21 0
2 21 33 0
-2 -21 -33 0
3 21 48 0
-3 -21 -48 0
1 19 22 0
-1 -19 -22 0
2 22 34 0
-2 -22 -34 0
3 22 49 0
-3 -22 -49 0
1 20 23 0
-1 -20 -23 0
2 23 35 0
-2 -23 -35 0
3 23 50 0
-3 -23 -50 0
1 21 24 0
-1 -21 -24 0
2 24 36 0
-2 -24 -36 0
3 24 51 0
-3 -24 -51 0
1 22 25 0
-1 -22 -25 0
2 25 37 0
-2 -25 -37 0
3 25 52 0
-3 -25 -52 0
1 23 26 0
-1 -23 -26 0
2 26 38 0
-2 -26 -38 0
3 26 53 0
-3 -26 -53 0
1 24 27 0
-1 -24 -27 0
2 27 39 0
-2 -27 -39 0
3 27 54 0
-3 -27 -54 0
1 25 28 0
-1 -25 -28 0
2 28 40 0
-2 -28 -40 0
3 28 55 0
-3 -28 -55 0
1 26 29 0
-1 -26 -29 0
2 29 41 0
-2 -29 -41 0
1 27 30 0
-1 -27 -30 0
2 30 42 0
-2 -30 -42 0
1 28 31 0
-1 -28 -31 0
2 31 43 0
-2 -31 -43 0
1 29 32 0
-1 -29 -32 0
2 32 44 0
-2 -32 -44 0
1 30 33 0
-1 -30 -33 0
2 33 45 0
-2 -33 -45 0
1 31 34 0
-1 -31 -34 0
2 34 46 0
-2 -34 -46 0
1 32 35 0
-1 -32 -35 0
2 35 47 0
-2 -35 -47 0
1 33 36 0
-1 -33 -36 0
2 36 48 0
-2 -36 -48 0
1 34 37 0
-1 -34 -37 0
2 37 49 0
-2 -37 -49 0
1 35 38 0
-1 -35 -38 0
2 38 50 0
-2 -38 -50 0
1 36 39 0
-1 -36 -39 0
2 39 51 0
-2 -39 -51 0
1 37 40 0
-1 -37 -40 0
2 40 52 0
-2 -40 -52 0
1 38 41 0
-1 -38 -41 0
2 41 53 0
-2 -41 -53 0
1 39 42 0
-1 -39 -42 0
2 42 54 0
-2 -42 -54 0
1 40 43 0
-1 -40 -43 0
2 43 55 0
-2 -43 -55 0
1 41 44 0
-1 -41 -44 0
1 42 45 0
-1 -42 -45 0
1 43 46 0
-1 -43 -46 0
1 44 47 0
-1 -44 -47 0
1 45 48 0
-1 -45 -48 0
1 46 49 0
-1 -46 -49 0
1 47 50 0
-1 -47 -50 0
1 48 51 0
-1 -48 -51 0
1 49 52 0
-1 -49 -52 0
1 50 53 0
-1 -50 -53 0
1 51 54 0
-1 -51 -54 0
1 52 55 0
-1 -52 -55 0
