certificates/rado_a15_c18_N55.drat
-52 -55 0
d -52 -1 -55 0
10 13 52 0
-4 13 0
13 52 0
d 10 13 52 0
-55 0
4 -13 0
-4 0
1 0
46 0
13 0
0
